
Welcome to IBM(R) ILOG(R) CPLEX(R) Interactive Optimizer 22.1.1.0
  with Simplex, Mixed Integer & Barrier Optimizers
5725-A06 5725-A29 5724-Y48 5724-Y49 5724-Y54 5724-Y55 5655-Y21
Copyright IBM Corp. 1988, 2022.  All Rights Reserved.

Type 'help' for a list of available commands.
Type 'help' followed by a command name for more
information on commands.

CPLEX> Selected objective sense:  MINIMIZE
Selected objective  name:  00000000
Selected RHS        name:  RHS1
Selected bound      name:  BOUND
Problem 'ee.mps' read.
Read time = 0.02 sec. (3.17 ticks)
CPLEX> New value for time limit in seconds: 7200
CPLEX> New value for parallel optimization mode: -1
CPLEX> New value for default parallel thread count: 40
CPLEX> New value for mixed integer optimality gap tolerance: 1e-13
CPLEX> Version identifier: 22.1.1.0 | 2022-11-28 | 9160aff4d
CPXPARAM_Threads                                 40
CPXPARAM_Parallel                                -1
CPXPARAM_TimeLimit                               7200
CPXPARAM_MIP_Tolerances_MIPGap                   1e-13
Found incumbent of value 0.000000 after 0.00 sec. (0.31 ticks)
Tried aggregator 2 times.
MIP Presolve eliminated 184 rows and 2745 columns.
MIP Presolve modified 6090 coefficients.
Aggregator did 713 substitutions.
Reduced MIP has 3636 rows, 7840 columns, and 28953 nonzeros.
Reduced MIP has 7840 binaries, 0 generals, 0 SOSs, and 0 indicators.
Presolve time = 0.07 sec. (69.14 ticks)
Probing time = 0.03 sec. (5.35 ticks)
Tried aggregator 1 time.
Detecting symmetries...
Reduced MIP has 3636 rows, 7840 columns, and 28953 nonzeros.
Reduced MIP has 7840 binaries, 0 generals, 0 SOSs, and 0 indicators.
Presolve time = 0.02 sec. (22.10 ticks)
Probing time = 0.02 sec. (5.13 ticks)
Clique table members: 18788.
MIP emphasis: balance optimality and feasibility.
MIP search method: dynamic search.
Parallel mode: opportunistic, using up to 40 threads.
Root relaxation solution time = 0.14 sec. (126.87 ticks)

        Nodes                                         Cuts/
   Node  Left     Objective  IInf  Best Integer    Best Bound    ItCnt     Gap

*     0+    0                            0.0000  -1.54000e+13              --- 
*     0+    0                      -3.60000e+12  -1.54000e+13           327.78%
*     0+    0                      -4.80000e+12  -1.54000e+13           220.83%
*     0+    0                      -6.00000e+12  -1.54000e+13           156.67%
      0     0  -1.53900e+13    95  -6.00000e+12  -1.53900e+13     2649  156.50%
*     0+    0                      -1.53900e+13  -1.53900e+13             0.00%
      0     0  -1.53900e+13   182  -1.53900e+13      Cuts: 65     3212    0.00%
*     0+    0                      -1.53900e+13  -1.53900e+13             0.00%
      0     0  -1.53900e+13   258  -1.53900e+13     Cuts: 106     3608    0.00%
*     0+    0                      -1.53900e+13  -1.53900e+13             0.00%
*     0+    0                      -1.53900e+13  -1.53900e+13             0.00%
*     0+    0                      -1.53900e+13  -1.53900e+13             0.00%
*     0+    0                      -1.53900e+13  -1.53900e+13             0.00%
*     0+    0                      -1.53900e+13  -1.53900e+13             0.00%
      0     0  -1.00000e+75     0  -1.53900e+13  -1.53900e+13     3608    0.00%
      0    31    infeasible        -1.53900e+13  -1.53900e+13    29730    0.00%
Elapsed time = 2.87 sec. (1176.60 ticks, tree = 0.02 MB, solutions = 14)
    473    60  -1.53900e+13   195  -1.53900e+13  -1.53900e+13    40659    0.00%
   1765    65        cutoff        -1.53900e+13  -1.53900e+13    48092    0.00%
   3198    71        cutoff        -1.53900e+13  -1.53900e+13    51187    0.00%
   4295   298        cutoff        -1.53900e+13  -1.53900e+13   130621    0.00%
   5245   667  -1.53900e+13   194  -1.53900e+13  -1.53900e+13   220071    0.00%
   5925   441  -1.53900e+13   161  -1.53900e+13  -1.53900e+13   312005    0.00%
   6800   359  -1.53900e+13   126  -1.53900e+13  -1.53900e+13   383094    0.00%
   7735    88  -1.53900e+13   172  -1.53900e+13  -1.53900e+13   490659    0.00%
   8395   259  -1.53900e+13    36  -1.53900e+13  -1.53900e+13   428624    0.00%

GUB cover cuts applied:  5
Clique cuts applied:  18
Cover cuts applied:  718
Flow cuts applied:  2
Mixed integer rounding cuts applied:  10
Zero-half cuts applied:  11
Lift and project cuts applied:  5
Gomory fractional cuts applied:  23

Root node processing (before b&c):
  Real time             =    1.35 sec. (1164.83 ticks)
Parallel b&c, 40 threads:
  Real time             =    5.25 sec. (2914.22 ticks)
  Sync time (average)   =    1.60 sec.
  Wait time (average)   =    0.00 sec.
                          ------------
Total (root+branch&cut) =    6.60 sec. (4079.05 ticks)

Solution pool: 19 solutions saved.

MIP - Integer optimal solution:  Objective = -1.5389998589e+13
Solution time =    6.73 sec.  Iterations = 594990  Nodes = 9537
Deterministic time = 4079.08 ticks  (606.48 ticks/sec)

CPLEX> Solution 'p20' written to file 'ee.sol'.
CPLEX> 